(set-info :source |printed by MathSAT|)
(declare-fun |sum::n__param__@2| () (_ BitVec 32))
(declare-fun |sum::m__param__@2| () (_ BitVec 32))
(declare-fun |sum::n@2| () (_ BitVec 32))
(declare-fun |sum::m@2| () (_ BitVec 32))
(declare-fun |sum::n__param__@3| () (_ BitVec 32))
(declare-fun |sum::m__param__@3| () (_ BitVec 32))
(declare-fun |sum::__retval__@2| () (_ BitVec 32))
(declare-fun |sum::n@3| () (_ BitVec 32))
(declare-fun |sum::m@3| () (_ BitVec 32))
(declare-fun |sum::n__param__@4| () (_ BitVec 32))
(declare-fun |sum::m__param__@4| () (_ BitVec 32))
(declare-fun |sum::n@4| () (_ BitVec 32))
(declare-fun |sum::m@4| () (_ BitVec 32))
(declare-fun |sum::n__param__@5| () (_ BitVec 32))
(declare-fun |sum::m__param__@5| () (_ BitVec 32))
(declare-fun |sum::n@5| () (_ BitVec 32))
(declare-fun |sum::m@5| () (_ BitVec 32))
(declare-fun |sum::n__param__@6| () (_ BitVec 32))
(declare-fun |sum::m__param__@6| () (_ BitVec 32))
(declare-fun |sum::n@6| () (_ BitVec 32))
(declare-fun |sum::m@6| () (_ BitVec 32))
(declare-fun |sum::n__param__@7| () (_ BitVec 32))
(declare-fun |sum::m__param__@7| () (_ BitVec 32))
(declare-fun |sum::n@7| () (_ BitVec 32))
(declare-fun |sum::m@7| () (_ BitVec 32))
(declare-fun |sum::n__param__@8| () (_ BitVec 32))
(declare-fun |sum::m__param__@8| () (_ BitVec 32))
(declare-fun |sum::n@8| () (_ BitVec 32))
(declare-fun |sum::m@8| () (_ BitVec 32))
(declare-fun |sum::n__param__@9| () (_ BitVec 32))
(declare-fun |sum::m__param__@9| () (_ BitVec 32))
(declare-fun |sum::n@9| () (_ BitVec 32))
(declare-fun |sum::m@9| () (_ BitVec 32))
(declare-fun |sum::n__param__@10| () (_ BitVec 32))
(declare-fun |sum::m__param__@10| () (_ BitVec 32))
(declare-fun |sum::n@10| () (_ BitVec 32))
(declare-fun |sum::m@10| () (_ BitVec 32))
(declare-fun |sum::n__param__@11| () (_ BitVec 32))
(declare-fun |sum::m__param__@11| () (_ BitVec 32))
(declare-fun |sum::n@11| () (_ BitVec 32))
(declare-fun |sum::m@11| () (_ BitVec 32))
(declare-fun |sum::n__param__@12| () (_ BitVec 32))
(declare-fun |sum::m__param__@12| () (_ BitVec 32))
(declare-fun |sum::n@12| () (_ BitVec 32))
(declare-fun |sum::m@12| () (_ BitVec 32))
(declare-fun |sum::n__param__@13| () (_ BitVec 32))
(declare-fun |sum::m__param__@13| () (_ BitVec 32))
(declare-fun |sum::n@13| () (_ BitVec 32))
(declare-fun |sum::m@13| () (_ BitVec 32))
(declare-fun |sum::n__param__@14| () (_ BitVec 32))
(declare-fun |sum::m__param__@14| () (_ BitVec 32))
(declare-fun |sum::n@14| () (_ BitVec 32))
(declare-fun |sum::m@14| () (_ BitVec 32))
(declare-fun |sum::n__param__@15| () (_ BitVec 32))
(declare-fun |sum::m__param__@15| () (_ BitVec 32))
(declare-fun |sum::n@15| () (_ BitVec 32))
(declare-fun |sum::m@15| () (_ BitVec 32))
(declare-fun |sum::n__param__@16| () (_ BitVec 32))
(declare-fun |sum::m__param__@16| () (_ BitVec 32))
(declare-fun |sum::n@16| () (_ BitVec 32))
(declare-fun |sum::m@16| () (_ BitVec 32))
(declare-fun |sum::n__param__@17| () (_ BitVec 32))
(declare-fun |sum::m__param__@17| () (_ BitVec 32))
(declare-fun |sum::n@17| () (_ BitVec 32))
(declare-fun |sum::m@17| () (_ BitVec 32))
(declare-fun |sum::iVar1@18| () (_ BitVec 32))
(declare-fun |sum::__retval__@3| () (_ BitVec 32))
(declare-fun |sum::__retval__@4| () (_ BitVec 32))
(declare-fun |sum::__retval__@5| () (_ BitVec 32))
(declare-fun |sum::__retval__@6| () (_ BitVec 32))
(declare-fun |sum::__retval__@7| () (_ BitVec 32))
(declare-fun |sum::__retval__@8| () (_ BitVec 32))
(declare-fun |sum::__retval__@9| () (_ BitVec 32))
(declare-fun |sum::__retval__@10| () (_ BitVec 32))
(declare-fun |sum::__retval__@11| () (_ BitVec 32))
(declare-fun |sum::__retval__@12| () (_ BitVec 32))
(declare-fun |sum::__retval__@13| () (_ BitVec 32))
(declare-fun |sum::__retval__@14| () (_ BitVec 32))
(declare-fun |sum::__retval__@15| () (_ BitVec 32))
(declare-fun |sum::__retval__@16| () (_ BitVec 32))
(declare-fun |sum::__retval__@17| () (_ BitVec 32))
(declare-fun |sum::iVar1@20| () (_ BitVec 32))
(declare-fun |sum::iVar1@22| () (_ BitVec 32))
(declare-fun |sum::iVar1@24| () (_ BitVec 32))
(declare-fun |sum::iVar1@26| () (_ BitVec 32))
(declare-fun |sum::iVar1@28| () (_ BitVec 32))
(declare-fun |sum::iVar1@30| () (_ BitVec 32))
(declare-fun |sum::iVar1@32| () (_ BitVec 32))
(declare-fun |sum::iVar1@34| () (_ BitVec 32))
(declare-fun |sum::iVar1@36| () (_ BitVec 32))
(declare-fun |sum::iVar1@38| () (_ BitVec 32))
(declare-fun |sum::iVar1@40| () (_ BitVec 32))
(declare-fun |sum::iVar1@42| () (_ BitVec 32))
(declare-fun |sum::iVar1@44| () (_ BitVec 32))
(declare-fun |sum::iVar1@46| () (_ BitVec 32))
(declare-fun |sum::iVar1@48| () (_ BitVec 32))
(declare-fun |main::iVar1@19| () (_ BitVec 32))
(assert (let ((.def_19 (= |sum::m__param__@2| |sum::m@2|)))(let ((.def_17 (= |sum::n__param__@2| |sum::n@2|)))(let ((.def_20 (and .def_17 .def_19)))(let ((.def_14 (= |sum::m__param__@2| (_ bv0 32))))(let ((.def_12 (= |sum::n__param__@2| (_ bv15 32))))(let ((.def_15 (and .def_12 .def_14)))(let ((.def_473 (and .def_15 .def_20)))(let ((.def_22 (bvslt |sum::n@2| (_ bv1 32))))(let ((.def_25 (not .def_22)))(let ((.def_474 (and .def_25 .def_473)))(let ((.def_34 (bvadd (_ bv1 32) |sum::m@2|)))(let ((.def_36 (= .def_34 |sum::m__param__@3|)))(let ((.def_30 (bvadd (_ bv4294967295 32) |sum::n@2|)))(let ((.def_32 (= .def_30 |sum::n__param__@3|)))(let ((.def_37 (and .def_32 .def_36)))(let ((.def_475 (and .def_37 .def_474)))(let ((.def_76 (= |sum::m__param__@3| |sum::m@3|)))(let ((.def_74 (= |sum::n__param__@3| |sum::n@3|)))(let ((.def_77 (and .def_74 .def_76)))(let ((.def_476 (and .def_77 .def_475)))(let ((.def_78 (bvslt |sum::n@3| (_ bv1 32))))(let ((.def_80 (not .def_78)))(let ((.def_477 (and .def_80 .def_476)))(let ((.def_88 (bvadd (_ bv1 32) |sum::m@3|)))(let ((.def_90 (= .def_88 |sum::m__param__@4|)))(let ((.def_84 (bvadd (_ bv4294967295 32) |sum::n@3|)))(let ((.def_86 (= .def_84 |sum::n__param__@4|)))(let ((.def_91 (and .def_86 .def_90)))(let ((.def_478 (and .def_91 .def_477)))(let ((.def_95 (= |sum::m__param__@4| |sum::m@4|)))(let ((.def_93 (= |sum::n__param__@4| |sum::n@4|)))(let ((.def_96 (and .def_93 .def_95)))(let ((.def_479 (and .def_96 .def_478)))(let ((.def_97 (bvslt |sum::n@4| (_ bv1 32))))(let ((.def_99 (not .def_97)))(let ((.def_480 (and .def_99 .def_479)))(let ((.def_107 (bvadd (_ bv1 32) |sum::m@4|)))(let ((.def_109 (= .def_107 |sum::m__param__@5|)))(let ((.def_103 (bvadd (_ bv4294967295 32) |sum::n@4|)))(let ((.def_105 (= .def_103 |sum::n__param__@5|)))(let ((.def_110 (and .def_105 .def_109)))(let ((.def_481 (and .def_110 .def_480)))(let ((.def_114 (= |sum::m__param__@5| |sum::m@5|)))(let ((.def_112 (= |sum::n__param__@5| |sum::n@5|)))(let ((.def_115 (and .def_112 .def_114)))(let ((.def_482 (and .def_115 .def_481)))(let ((.def_116 (bvslt |sum::n@5| (_ bv1 32))))(let ((.def_118 (not .def_116)))(let ((.def_483 (and .def_118 .def_482)))(let ((.def_126 (bvadd (_ bv1 32) |sum::m@5|)))(let ((.def_128 (= .def_126 |sum::m__param__@6|)))(let ((.def_122 (bvadd (_ bv4294967295 32) |sum::n@5|)))(let ((.def_124 (= .def_122 |sum::n__param__@6|)))(let ((.def_129 (and .def_124 .def_128)))(let ((.def_484 (and .def_129 .def_483)))(let ((.def_133 (= |sum::m__param__@6| |sum::m@6|)))(let ((.def_131 (= |sum::n__param__@6| |sum::n@6|)))(let ((.def_134 (and .def_131 .def_133)))(let ((.def_485 (and .def_134 .def_484)))(let ((.def_135 (bvslt |sum::n@6| (_ bv1 32))))(let ((.def_137 (not .def_135)))(let ((.def_486 (and .def_137 .def_485)))(let ((.def_145 (bvadd (_ bv1 32) |sum::m@6|)))(let ((.def_147 (= .def_145 |sum::m__param__@7|)))(let ((.def_141 (bvadd (_ bv4294967295 32) |sum::n@6|)))(let ((.def_143 (= .def_141 |sum::n__param__@7|)))(let ((.def_148 (and .def_143 .def_147)))(let ((.def_487 (and .def_148 .def_486)))(let ((.def_152 (= |sum::m__param__@7| |sum::m@7|)))(let ((.def_150 (= |sum::n__param__@7| |sum::n@7|)))(let ((.def_153 (and .def_150 .def_152)))(let ((.def_488 (and .def_153 .def_487)))(let ((.def_154 (bvslt |sum::n@7| (_ bv1 32))))(let ((.def_156 (not .def_154)))(let ((.def_489 (and .def_156 .def_488)))(let ((.def_164 (bvadd (_ bv1 32) |sum::m@7|)))(let ((.def_166 (= .def_164 |sum::m__param__@8|)))(let ((.def_160 (bvadd (_ bv4294967295 32) |sum::n@7|)))(let ((.def_162 (= .def_160 |sum::n__param__@8|)))(let ((.def_167 (and .def_162 .def_166)))(let ((.def_490 (and .def_167 .def_489)))(let ((.def_171 (= |sum::m__param__@8| |sum::m@8|)))(let ((.def_169 (= |sum::n__param__@8| |sum::n@8|)))(let ((.def_172 (and .def_169 .def_171)))(let ((.def_491 (and .def_172 .def_490)))(let ((.def_173 (bvslt |sum::n@8| (_ bv1 32))))(let ((.def_175 (not .def_173)))(let ((.def_492 (and .def_175 .def_491)))(let ((.def_183 (bvadd (_ bv1 32) |sum::m@8|)))(let ((.def_185 (= .def_183 |sum::m__param__@9|)))(let ((.def_179 (bvadd (_ bv4294967295 32) |sum::n@8|)))(let ((.def_181 (= .def_179 |sum::n__param__@9|)))(let ((.def_186 (and .def_181 .def_185)))(let ((.def_493 (and .def_186 .def_492)))(let ((.def_190 (= |sum::m__param__@9| |sum::m@9|)))(let ((.def_188 (= |sum::n__param__@9| |sum::n@9|)))(let ((.def_191 (and .def_188 .def_190)))(let ((.def_494 (and .def_191 .def_493)))(let ((.def_192 (bvslt |sum::n@9| (_ bv1 32))))(let ((.def_194 (not .def_192)))(let ((.def_495 (and .def_194 .def_494)))(let ((.def_202 (bvadd (_ bv1 32) |sum::m@9|)))(let ((.def_204 (= .def_202 |sum::m__param__@10|)))(let ((.def_198 (bvadd (_ bv4294967295 32) |sum::n@9|)))(let ((.def_200 (= .def_198 |sum::n__param__@10|)))(let ((.def_205 (and .def_200 .def_204)))(let ((.def_496 (and .def_205 .def_495)))(let ((.def_209 (= |sum::m__param__@10| |sum::m@10|)))(let ((.def_207 (= |sum::n__param__@10| |sum::n@10|)))(let ((.def_210 (and .def_207 .def_209)))(let ((.def_497 (and .def_210 .def_496)))(let ((.def_211 (bvslt |sum::n@10| (_ bv1 32))))(let ((.def_213 (not .def_211)))(let ((.def_498 (and .def_213 .def_497)))(let ((.def_221 (bvadd (_ bv1 32) |sum::m@10|)))(let ((.def_223 (= .def_221 |sum::m__param__@11|)))(let ((.def_217 (bvadd (_ bv4294967295 32) |sum::n@10|)))(let ((.def_219 (= .def_217 |sum::n__param__@11|)))(let ((.def_224 (and .def_219 .def_223)))(let ((.def_499 (and .def_224 .def_498)))(let ((.def_228 (= |sum::m__param__@11| |sum::m@11|)))(let ((.def_226 (= |sum::n__param__@11| |sum::n@11|)))(let ((.def_229 (and .def_226 .def_228)))(let ((.def_500 (and .def_229 .def_499)))(let ((.def_230 (bvslt |sum::n@11| (_ bv1 32))))(let ((.def_232 (not .def_230)))(let ((.def_501 (and .def_232 .def_500)))(let ((.def_240 (bvadd (_ bv1 32) |sum::m@11|)))(let ((.def_242 (= .def_240 |sum::m__param__@12|)))(let ((.def_236 (bvadd (_ bv4294967295 32) |sum::n@11|)))(let ((.def_238 (= .def_236 |sum::n__param__@12|)))(let ((.def_243 (and .def_238 .def_242)))(let ((.def_502 (and .def_243 .def_501)))(let ((.def_247 (= |sum::m__param__@12| |sum::m@12|)))(let ((.def_245 (= |sum::n__param__@12| |sum::n@12|)))(let ((.def_248 (and .def_245 .def_247)))(let ((.def_503 (and .def_248 .def_502)))(let ((.def_249 (bvslt |sum::n@12| (_ bv1 32))))(let ((.def_251 (not .def_249)))(let ((.def_504 (and .def_251 .def_503)))(let ((.def_259 (bvadd (_ bv1 32) |sum::m@12|)))(let ((.def_261 (= .def_259 |sum::m__param__@13|)))(let ((.def_255 (bvadd (_ bv4294967295 32) |sum::n@12|)))(let ((.def_257 (= .def_255 |sum::n__param__@13|)))(let ((.def_262 (and .def_257 .def_261)))(let ((.def_505 (and .def_262 .def_504)))(let ((.def_266 (= |sum::m__param__@13| |sum::m@13|)))(let ((.def_264 (= |sum::n__param__@13| |sum::n@13|)))(let ((.def_267 (and .def_264 .def_266)))(let ((.def_506 (and .def_267 .def_505)))(let ((.def_268 (bvslt |sum::n@13| (_ bv1 32))))(let ((.def_270 (not .def_268)))(let ((.def_507 (and .def_270 .def_506)))(let ((.def_278 (bvadd (_ bv1 32) |sum::m@13|)))(let ((.def_280 (= .def_278 |sum::m__param__@14|)))(let ((.def_274 (bvadd (_ bv4294967295 32) |sum::n@13|)))(let ((.def_276 (= .def_274 |sum::n__param__@14|)))(let ((.def_281 (and .def_276 .def_280)))(let ((.def_508 (and .def_281 .def_507)))(let ((.def_285 (= |sum::m__param__@14| |sum::m@14|)))(let ((.def_283 (= |sum::n__param__@14| |sum::n@14|)))(let ((.def_286 (and .def_283 .def_285)))(let ((.def_509 (and .def_286 .def_508)))(let ((.def_287 (bvslt |sum::n@14| (_ bv1 32))))(let ((.def_289 (not .def_287)))(let ((.def_510 (and .def_289 .def_509)))(let ((.def_297 (bvadd (_ bv1 32) |sum::m@14|)))(let ((.def_299 (= .def_297 |sum::m__param__@15|)))(let ((.def_293 (bvadd (_ bv4294967295 32) |sum::n@14|)))(let ((.def_295 (= .def_293 |sum::n__param__@15|)))(let ((.def_300 (and .def_295 .def_299)))(let ((.def_511 (and .def_300 .def_510)))(let ((.def_304 (= |sum::m__param__@15| |sum::m@15|)))(let ((.def_302 (= |sum::n__param__@15| |sum::n@15|)))(let ((.def_305 (and .def_302 .def_304)))(let ((.def_512 (and .def_305 .def_511)))(let ((.def_306 (bvslt |sum::n@15| (_ bv1 32))))(let ((.def_308 (not .def_306)))(let ((.def_513 (and .def_308 .def_512)))(let ((.def_316 (bvadd (_ bv1 32) |sum::m@15|)))(let ((.def_318 (= .def_316 |sum::m__param__@16|)))(let ((.def_312 (bvadd (_ bv4294967295 32) |sum::n@15|)))(let ((.def_314 (= .def_312 |sum::n__param__@16|)))(let ((.def_319 (and .def_314 .def_318)))(let ((.def_514 (and .def_319 .def_513)))(let ((.def_323 (= |sum::m__param__@16| |sum::m@16|)))(let ((.def_321 (= |sum::n__param__@16| |sum::n@16|)))(let ((.def_324 (and .def_321 .def_323)))(let ((.def_515 (and .def_324 .def_514)))(let ((.def_325 (bvslt |sum::n@16| (_ bv1 32))))(let ((.def_327 (not .def_325)))(let ((.def_516 (and .def_327 .def_515)))(let ((.def_335 (bvadd (_ bv1 32) |sum::m@16|)))(let ((.def_337 (= .def_335 |sum::m__param__@17|)))(let ((.def_331 (bvadd (_ bv4294967295 32) |sum::n@16|)))(let ((.def_333 (= .def_331 |sum::n__param__@17|)))(let ((.def_338 (and .def_333 .def_337)))(let ((.def_517 (and .def_338 .def_516)))(let ((.def_342 (= |sum::m__param__@17| |sum::m@17|)))(let ((.def_340 (= |sum::n__param__@17| |sum::n@17|)))(let ((.def_343 (and .def_340 .def_342)))(let ((.def_518 (and .def_343 .def_517)))(let ((.def_344 (bvslt |sum::n@17| (_ bv1 32))))(let ((.def_519 (and .def_344 .def_518)))(let ((.def_347 (bvadd |sum::n@17| |sum::m@17|)))(let ((.def_349 (= .def_347 |sum::iVar1@18|)))(let ((.def_520 (and .def_349 .def_519)))(let ((.def_351 (= |sum::__retval__@2| |sum::iVar1@18|)))(let ((.def_521 (and .def_351 .def_520)))(let ((.def_413 (= |sum::__retval__@2| |sum::iVar1@20|)))(let ((.def_522 (and .def_413 .def_521)))(let ((.def_414 (= |sum::__retval__@3| |sum::iVar1@20|)))(let ((.def_523 (and .def_414 .def_522)))(let ((.def_416 (= |sum::__retval__@3| |sum::iVar1@22|)))(let ((.def_524 (and .def_416 .def_523)))(let ((.def_417 (= |sum::__retval__@4| |sum::iVar1@22|)))(let ((.def_525 (and .def_417 .def_524)))(let ((.def_419 (= |sum::__retval__@4| |sum::iVar1@24|)))(let ((.def_526 (and .def_419 .def_525)))(let ((.def_420 (= |sum::__retval__@5| |sum::iVar1@24|)))(let ((.def_527 (and .def_420 .def_526)))(let ((.def_422 (= |sum::__retval__@5| |sum::iVar1@26|)))(let ((.def_528 (and .def_422 .def_527)))(let ((.def_423 (= |sum::__retval__@6| |sum::iVar1@26|)))(let ((.def_529 (and .def_423 .def_528)))(let ((.def_425 (= |sum::__retval__@6| |sum::iVar1@28|)))(let ((.def_530 (and .def_425 .def_529)))(let ((.def_426 (= |sum::__retval__@7| |sum::iVar1@28|)))(let ((.def_531 (and .def_426 .def_530)))(let ((.def_428 (= |sum::__retval__@7| |sum::iVar1@30|)))(let ((.def_532 (and .def_428 .def_531)))(let ((.def_429 (= |sum::__retval__@8| |sum::iVar1@30|)))(let ((.def_533 (and .def_429 .def_532)))(let ((.def_431 (= |sum::__retval__@8| |sum::iVar1@32|)))(let ((.def_534 (and .def_431 .def_533)))(let ((.def_432 (= |sum::__retval__@9| |sum::iVar1@32|)))(let ((.def_535 (and .def_432 .def_534)))(let ((.def_434 (= |sum::__retval__@9| |sum::iVar1@34|)))(let ((.def_536 (and .def_434 .def_535)))(let ((.def_435 (= |sum::__retval__@10| |sum::iVar1@34|)))(let ((.def_537 (and .def_435 .def_536)))(let ((.def_437 (= |sum::__retval__@10| |sum::iVar1@36|)))(let ((.def_538 (and .def_437 .def_537)))(let ((.def_438 (= |sum::__retval__@11| |sum::iVar1@36|)))(let ((.def_539 (and .def_438 .def_538)))(let ((.def_440 (= |sum::__retval__@11| |sum::iVar1@38|)))(let ((.def_540 (and .def_440 .def_539)))(let ((.def_441 (= |sum::__retval__@12| |sum::iVar1@38|)))(let ((.def_541 (and .def_441 .def_540)))(let ((.def_443 (= |sum::__retval__@12| |sum::iVar1@40|)))(let ((.def_542 (and .def_443 .def_541)))(let ((.def_444 (= |sum::__retval__@13| |sum::iVar1@40|)))(let ((.def_543 (and .def_444 .def_542)))(let ((.def_446 (= |sum::__retval__@13| |sum::iVar1@42|)))(let ((.def_544 (and .def_446 .def_543)))(let ((.def_447 (= |sum::__retval__@14| |sum::iVar1@42|)))(let ((.def_545 (and .def_447 .def_544)))(let ((.def_449 (= |sum::__retval__@14| |sum::iVar1@44|)))(let ((.def_546 (and .def_449 .def_545)))(let ((.def_450 (= |sum::__retval__@15| |sum::iVar1@44|)))(let ((.def_547 (and .def_450 .def_546)))(let ((.def_452 (= |sum::__retval__@15| |sum::iVar1@46|)))(let ((.def_548 (and .def_452 .def_547)))(let ((.def_453 (= |sum::__retval__@16| |sum::iVar1@46|)))(let ((.def_549 (and .def_453 .def_548)))(let ((.def_455 (= |sum::__retval__@16| |sum::iVar1@48|)))(let ((.def_550 (and .def_455 .def_549)))(let ((.def_456 (= |sum::__retval__@17| |sum::iVar1@48|)))(let ((.def_551 (and .def_456 .def_550)))(let ((.def_458 (= |sum::__retval__@17| |main::iVar1@19|)))(let ((.def_552 (and .def_458 .def_551)))(let ((.def_459 (= |main::iVar1@19| (_ bv15 32))))(let ((.def_553 (and .def_459 .def_552))).def_553))))))))))))))))))))))))))))))))))))))))))))))))))))))))))))))))))))))))))))))))))))))))))))))))))))))))))))))))))))))))))))))))))))))))))))))))))))))))))))))))))))))))))))))))))))))))))))))))))))))))))))))))))))))))))))))))))))))))))))))))))))))))))))))))))))))))))))))))))